proyfinal/src/viki/013/experimentInOfficeAgust.take6.output/5dfd57a6-d054-4d74-ad71-c0d1cc11f717.als.out
Reading from standard input... Use '--help' for help.
============================[ Problem Statistics ]=============================
|                                                                             |
|  Number of variables:         87638                                         |
|  Number of clauses:          161767                                         |
|  Parse time:                   0.03 s                                       |
|                                                                             |
============================[ Search Statistics ]==============================
| Conflicts |          ORIGINAL         |          LEARNT          | Progress |
|           |    Vars  Clauses Literals |    Limit  Clauses Lit/Cl |          |
===============================================================================
|       100 |   63210   108216   270335 |    39679      100     10 | 27.874 % |
|       250 |   63210   108216   270335 |    43647      250     30 | 27.874 % |
|       475 |   63210   108216   270335 |    48011      475     56 | 27.874 % |
|       812 |   63210   108216   270335 |    52813      812    136 | 27.874 % |
|      1318 |   63210   108216   270335 |    58094     1318    164 | 27.874 % |
|      2077 |   63201   108192   270287 |    63903     2073    135 | 27.884 % |
|      3216 |   63201   108192   270287 |    70294     3212    109 | 27.884 % |
|      4924 |   63182   108116   270108 |    77323     4919     87 | 27.906 % |
|      7486 |   53982    80667   202579 |    85055     5511     79 | 38.403 % |
|     11330 |   53325    78064   196332 |    93561     7545     77 | 39.153 % |
|     17096 |   53220    77676   195413 |   102917    12591     72 | 39.273 % |
===============================================================================
restarts              : 63
conflicts             : 18956          (7747 /sec)
decisions             : 71957          (0.00 % random) (29409 /sec)
propagations          : 26127326       (10678122 /sec)
conflict literals     : 1279856        (45.62 % deleted)
Memory used           : 32.99 MB
CPU time              : 2.44681 s

INDETERMINATE
